(declare-fun b104 () (_ FloatingPoint 8 24))
(declare-fun b80 () (_ FloatingPoint 8 24))
(declare-fun b92 () (_ FloatingPoint 8 24))
(declare-fun b56 () (_ FloatingPoint 8 24))
(declare-fun b10 () (_ FloatingPoint 8 24))
(declare-fun b125 () (_ FloatingPoint 8 24))
(declare-fun b41 () (_ FloatingPoint 8 24))
(declare-fun b32 () (_ FloatingPoint 8 24))
(declare-fun b113 () (_ FloatingPoint 8 24))
(declare-fun b23 () (_ FloatingPoint 8 24))
(declare-fun b62 () (_ FloatingPoint 8 24))
(declare-fun b77 () (_ FloatingPoint 8 24))
(declare-fun b26 () (_ FloatingPoint 8 24))
(declare-fun b110 () (_ FloatingPoint 8 24))
(declare-fun b20 () (_ FloatingPoint 8 24))
(declare-fun b89 () (_ FloatingPoint 8 24))
(declare-fun b74 () (_ FloatingPoint 8 24))
(declare-fun b116 () (_ FloatingPoint 8 24))
(declare-fun b95 () (_ FloatingPoint 8 24))
(declare-fun b59 () (_ FloatingPoint 8 24))
(declare-fun b98 () (_ FloatingPoint 8 24))
(declare-fun b222 () (_ FloatingPoint 8 24))
(declare-fun b29 () (_ FloatingPoint 8 24))
(declare-fun b47 () (_ FloatingPoint 8 24))
(declare-fun b68 () (_ FloatingPoint 8 24))
(declare-fun b14 () (_ FloatingPoint 8 24))
(declare-fun b44 () (_ FloatingPoint 8 24))
(declare-fun b101 () (_ FloatingPoint 8 24))
(declare-fun b219 () (_ FloatingPoint 8 24))
(declare-fun b122 () (_ FloatingPoint 8 24))
(declare-fun b50 () (_ FloatingPoint 8 24))
(declare-fun b128 () (_ FloatingPoint 8 24))
(declare-fun b35 () (_ FloatingPoint 8 24))
(declare-fun b17 () (_ FloatingPoint 8 24))
(declare-fun b71 () (_ FloatingPoint 8 24))
(declare-fun b107 () (_ FloatingPoint 8 24))
(declare-fun b86 () (_ FloatingPoint 8 24))
(declare-fun b119 () (_ FloatingPoint 8 24))
(declare-fun b11 () (_ FloatingPoint 8 24))
(declare-fun b83 () (_ FloatingPoint 8 24))
(declare-fun b65 () (_ FloatingPoint 8 24))
(declare-fun b38 () (_ FloatingPoint 8 24))
(declare-fun b131 () (_ FloatingPoint 8 24))
(declare-fun b53 () (_ FloatingPoint 8 24))
(assert (let ((.def_252 (fp.lt b128 b222)))
(let ((.def_250 (fp.lt b219 b128)))
(let ((.def_248 (fp.lt b125 b222)))
(let ((.def_246 (fp.lt b219 b125)))
(let ((.def_244 (fp.lt b122 b222)))
(let ((.def_242 (fp.lt b219 b122)))
(let ((.def_240 (fp.lt b119 b222)))
(let ((.def_238 (fp.lt b219 b119)))
(let ((.def_236 (fp.lt b116 b222)))
(let ((.def_234 (fp.lt b219 b116)))
(let ((.def_232 (fp.lt b113 b222)))
(let ((.def_230 (fp.lt b219 b113)))
(let ((.def_228 (fp.lt b110 b222)))
(let ((.def_226 (fp.lt b219 b110)))
(let ((.def_224 (fp.lt b107 b222)))
(let ((.def_222 (fp.lt b219 b107)))
(let ((.def_220 (fp.lt b104 b222)))
(let ((.def_218 (fp.lt b219 b104)))
(let ((.def_216 (fp.lt b101 b222)))
(let ((.def_214 (fp.lt b219 b101)))
(let ((.def_212 (fp.lt b98 b222)))
(let ((.def_210 (fp.lt b219 b98)))
(let ((.def_208 (fp.lt b95 b222)))
(let ((.def_206 (fp.lt b219 b95)))
(let ((.def_204 (fp.lt b92 b222)))
(let ((.def_202 (fp.lt b219 b92)))
(let ((.def_200 (fp.lt b89 b222)))
(let ((.def_198 (fp.lt b219 b89)))
(let ((.def_196 (fp.lt b86 b222)))
(let ((.def_194 (fp.lt b219 b86)))
(let ((.def_192 (fp.lt b83 b222)))
(let ((.def_190 (fp.lt b219 b83)))
(let ((.def_188 (fp.lt b80 b222)))
(let ((.def_186 (fp.lt b219 b80)))
(let ((.def_184 (fp.lt b77 b222)))
(let ((.def_182 (fp.lt b219 b77)))
(let ((.def_180 (fp.lt b74 b222)))
(let ((.def_178 (fp.lt b219 b74)))
(let ((.def_176 (fp.lt b71 b222)))
(let ((.def_174 (fp.lt b219 b71)))
(let ((.def_172 (fp.lt b68 b222)))
(let ((.def_170 (fp.lt b219 b68)))
(let ((.def_168 (fp.lt b65 b222)))
(let ((.def_166 (fp.lt b219 b65)))
(let ((.def_164 (fp.lt b62 b222)))
(let ((.def_162 (fp.lt b219 b62)))
(let ((.def_160 (fp.lt b59 b222)))
(let ((.def_158 (fp.lt b219 b59)))
(let ((.def_156 (fp.lt b56 b222)))
(let ((.def_154 (fp.lt b219 b56)))
(let ((.def_152 (fp.lt b53 b222)))
(let ((.def_150 (fp.lt b219 b53)))
(let ((.def_148 (fp.lt b50 b222)))
(let ((.def_146 (fp.lt b219 b50)))
(let ((.def_144 (fp.lt b47 b222)))
(let ((.def_142 (fp.lt b219 b47)))
(let ((.def_140 (fp.lt b44 b222)))
(let ((.def_138 (fp.lt b219 b44)))
(let ((.def_136 (fp.lt b41 b222)))
(let ((.def_134 (fp.lt b219 b41)))
(let ((.def_132 (fp.lt b38 b222)))
(let ((.def_130 (fp.lt b219 b38)))
(let ((.def_128 (fp.lt b35 b222)))
(let ((.def_126 (fp.lt b219 b35)))
(let ((.def_124 (fp.lt b32 b222)))
(let ((.def_122 (fp.lt b219 b32)))
(let ((.def_120 (fp.lt b29 b222)))
(let ((.def_118 (fp.lt b219 b29)))
(let ((.def_116 (fp.lt b26 b222)))
(let ((.def_114 (fp.lt b219 b26)))
(let ((.def_112 (fp.lt b23 b222)))
(let ((.def_110 (fp.lt b219 b23)))
(let ((.def_108 (fp.lt b20 b222)))
(let ((.def_106 (fp.lt b219 b20)))
(let ((.def_104 (fp.lt b17 b222)))
(let ((.def_102 (fp.lt b219 b17)))
(let ((.def_100 (fp.lt b14 b222)))
(let ((.def_98 (fp.lt b219 b14)))
(let ((.def_96 (fp.lt b11 b222)))
(let ((.def_13 (fp.mul RNE b11 b10)))
(let ((.def_15 (fp.mul RNE .def_13 b14)))
(let ((.def_17 (fp.mul RNE .def_15 b17)))
(let ((.def_19 (fp.mul RNE .def_17 b20)))
(let ((.def_21 (fp.mul RNE .def_19 b23)))
(let ((.def_23 (fp.mul RNE .def_21 b26)))
(let ((.def_25 (fp.mul RNE .def_23 b29)))
(let ((.def_27 (fp.mul RNE .def_25 b32)))
(let ((.def_29 (fp.mul RNE .def_27 b35)))
(let ((.def_31 (fp.mul RNE .def_29 b38)))
(let ((.def_33 (fp.mul RNE .def_31 b41)))
(let ((.def_35 (fp.mul RNE .def_33 b44)))
(let ((.def_37 (fp.mul RNE .def_35 b47)))
(let ((.def_39 (fp.mul RNE .def_37 b50)))
(let ((.def_41 (fp.mul RNE .def_39 b53)))
(let ((.def_43 (fp.mul RNE .def_41 b56)))
(let ((.def_45 (fp.mul RNE .def_43 b59)))
(let ((.def_47 (fp.mul RNE .def_45 b62)))
(let ((.def_49 (fp.mul RNE .def_47 b65)))
(let ((.def_51 (fp.mul RNE .def_49 b68)))
(let ((.def_53 (fp.mul RNE .def_51 b71)))
(let ((.def_55 (fp.mul RNE .def_53 b74)))
(let ((.def_57 (fp.mul RNE .def_55 b77)))
(let ((.def_59 (fp.mul RNE .def_57 b80)))
(let ((.def_61 (fp.mul RNE .def_59 b83)))
(let ((.def_63 (fp.mul RNE .def_61 b86)))
(let ((.def_65 (fp.mul RNE .def_63 b89)))
(let ((.def_67 (fp.mul RNE .def_65 b92)))
(let ((.def_69 (fp.mul RNE .def_67 b95)))
(let ((.def_71 (fp.mul RNE .def_69 b98)))
(let ((.def_73 (fp.mul RNE .def_71 b101)))
(let ((.def_75 (fp.mul RNE .def_73 b104)))
(let ((.def_77 (fp.mul RNE .def_75 b107)))
(let ((.def_79 (fp.mul RNE .def_77 b110)))
(let ((.def_81 (fp.mul RNE .def_79 b113)))
(let ((.def_83 (fp.mul RNE .def_81 b116)))
(let ((.def_85 (fp.mul RNE .def_83 b119)))
(let ((.def_87 (fp.mul RNE .def_85 b122)))
(let ((.def_89 (fp.mul RNE .def_87 b125)))
(let ((.def_91 (fp.mul RNE .def_89 b128)))
(let ((.def_93 (fp.lt .def_91 b131)))
(let ((.def_11 (fp.lt b219 b11)))
(let ((.def_94 (and .def_11 .def_93)))
(let ((.def_97 (and .def_94 .def_96)))
(let ((.def_99 (and .def_97 .def_98)))
(let ((.def_101 (and .def_99 .def_100)))
(let ((.def_103 (and .def_101 .def_102)))
(let ((.def_105 (and .def_103 .def_104)))
(let ((.def_107 (and .def_105 .def_106)))
(let ((.def_109 (and .def_107 .def_108)))
(let ((.def_111 (and .def_109 .def_110)))
(let ((.def_113 (and .def_111 .def_112)))
(let ((.def_115 (and .def_113 .def_114)))
(let ((.def_117 (and .def_115 .def_116)))
(let ((.def_119 (and .def_117 .def_118)))
(let ((.def_121 (and .def_119 .def_120)))
(let ((.def_123 (and .def_121 .def_122)))
(let ((.def_125 (and .def_123 .def_124)))
(let ((.def_127 (and .def_125 .def_126)))
(let ((.def_129 (and .def_127 .def_128)))
(let ((.def_131 (and .def_129 .def_130)))
(let ((.def_133 (and .def_131 .def_132)))
(let ((.def_135 (and .def_133 .def_134)))
(let ((.def_137 (and .def_135 .def_136)))
(let ((.def_139 (and .def_137 .def_138)))
(let ((.def_141 (and .def_139 .def_140)))
(let ((.def_143 (and .def_141 .def_142)))
(let ((.def_145 (and .def_143 .def_144)))
(let ((.def_147 (and .def_145 .def_146)))
(let ((.def_149 (and .def_147 .def_148)))
(let ((.def_151 (and .def_149 .def_150)))
(let ((.def_153 (and .def_151 .def_152)))
(let ((.def_155 (and .def_153 .def_154)))
(let ((.def_157 (and .def_155 .def_156)))
(let ((.def_159 (and .def_157 .def_158)))
(let ((.def_161 (and .def_159 .def_160)))
(let ((.def_163 (and .def_161 .def_162)))
(let ((.def_165 (and .def_163 .def_164)))
(let ((.def_167 (and .def_165 .def_166)))
(let ((.def_169 (and .def_167 .def_168)))
(let ((.def_171 (and .def_169 .def_170)))
(let ((.def_173 (and .def_171 .def_172)))
(let ((.def_175 (and .def_173 .def_174)))
(let ((.def_177 (and .def_175 .def_176)))
(let ((.def_179 (and .def_177 .def_178)))
(let ((.def_181 (and .def_179 .def_180)))
(let ((.def_183 (and .def_181 .def_182)))
(let ((.def_185 (and .def_183 .def_184)))
(let ((.def_187 (and .def_185 .def_186)))
(let ((.def_189 (and .def_187 .def_188)))
(let ((.def_191 (and .def_189 .def_190)))
(let ((.def_193 (and .def_191 .def_192)))
(let ((.def_195 (and .def_193 .def_194)))
(let ((.def_197 (and .def_195 .def_196)))
(let ((.def_199 (and .def_197 .def_198)))
(let ((.def_201 (and .def_199 .def_200)))
(let ((.def_203 (and .def_201 .def_202)))
(let ((.def_205 (and .def_203 .def_204)))
(let ((.def_207 (and .def_205 .def_206)))
(let ((.def_209 (and .def_207 .def_208)))
(let ((.def_211 (and .def_209 .def_210)))
(let ((.def_213 (and .def_211 .def_212)))
(let ((.def_215 (and .def_213 .def_214)))
(let ((.def_217 (and .def_215 .def_216)))
(let ((.def_219 (and .def_217 .def_218)))
(let ((.def_221 (and .def_219 .def_220)))
(let ((.def_223 (and .def_221 .def_222)))
(let ((.def_225 (and .def_223 .def_224)))
(let ((.def_227 (and .def_225 .def_226)))
(let ((.def_229 (and .def_227 .def_228)))
(let ((.def_231 (and .def_229 .def_230)))
(let ((.def_233 (and .def_231 .def_232)))
(let ((.def_235 (and .def_233 .def_234)))
(let ((.def_237 (and .def_235 .def_236)))
(let ((.def_239 (and .def_237 .def_238)))
(let ((.def_241 (and .def_239 .def_240)))
(let ((.def_243 (and .def_241 .def_242)))
(let ((.def_245 (and .def_243 .def_244)))
(let ((.def_247 (and .def_245 .def_246)))
(let ((.def_249 (and .def_247 .def_248)))
(let ((.def_251 (and .def_249 .def_250)))
(let ((.def_253 (and .def_251 .def_252)))
.def_253))))))))))))))))))))))))))))))))))))))))))))))))))))))))))))))))))))))))))))))))))))))))))))))))))))))))))))))))))))))))))))))))))))))))))))))))))))))))))))))))))))))))))))))))))))))))))))))))))))))))))
(check-sat)
